c Circuit-CNF generated by TG-PRO v1.0 (c) Huan Chen and Joao Marques-Silva
p cnf 242 646
1 2 0
-1 -2 0
3 4 0
-3 -4 0
5 6 0
-5 -6 0
7 8 0
-7 -8 0
9 10 0
-9 -10 0
11 12 0
-11 -12 0
13 14 0
-13 -14 0
15 16 0
-15 -16 0
17 18 0
-17 -18 0
19 20 0
-19 -20 0
21 22 0
-21 -22 0
23 24 0
-23 -24 0
25 26 0
-25 -26 0
27 28 0
-27 -28 0
29 30 0
-29 -30 0
31 32 0
-31 -32 0
33 -34 0
33 -35 0
-33 34 35 0
36 33 0
-36 -33 0
37 -38 0
37 -39 0
-37 38 39 0
40 37 0
-40 -37 0
41 -39 0
41 -28 0
-41 39 28 0
42 41 0
-42 -41 0
43 44 0
-43 -44 0
45 46 0
-45 -46 0
39 47 0
-39 -47 0
38 35 0
-38 -35 0
48 49 0
-48 -49 0
50 51 0
-50 -51 0
52 53 0
-52 -53 0
54 55 0
-54 -55 0
56 57 0
-56 -57 0
-58 59 0
-58 60 0
58 -59 -60 0
2 58 0
-2 -58 0
61 -62 0
61 -63 0
-61 62 63 0
4 61 0
-4 -61 0
-64 65 0
-64 66 0
64 -65 -66 0
6 64 0
-6 -64 0
-67 68 0
-67 69 0
67 -68 -69 0
8 67 0
-8 -67 0
-70 71 0
-70 72 0
70 -71 -72 0
10 70 0
-10 -70 0
-73 74 0
-73 75 0
73 -74 -75 0
12 73 0
-12 -73 0
-76 77 0
-76 78 0
76 -77 -78 0
14 76 0
-14 -76 0
-79 80 0
-79 81 0
79 -80 -81 0
16 79 0
-16 -79 0
-82 83 0
-82 84 0
82 -83 -84 0
18 82 0
-18 -82 0
85 -86 0
85 -87 0
-85 86 87 0
20 85 0
-20 -85 0
88 -89 0
88 -90 0
-88 89 90 0
22 88 0
-22 -88 0
-91 92 0
-91 93 0
91 -92 -93 0
24 91 0
-24 -91 0
-94 95 0
-94 96 0
94 -95 -96 0
26 94 0
-26 -94 0
-59 97 0
-59 39 0
59 -97 -39 0
-60 98 0
-60 48 0
60 -98 -48 0
-99 54 0
-99 48 0
99 -54 -48 0
-100 38 0
-100 39 0
100 -38 -39 0
-101 38 0
-101 39 0
101 -38 -39 0
-102 103 0
-102 45 0
102 -103 -45 0
-104 35 0
-104 46 0
104 -35 -46 0
-105 106 0
-105 49 0
105 -106 -49 0
-107 108 0
-107 48 0
107 -108 -48 0
-109 110 0
-109 48 0
109 -110 -48 0
-111 112 0
-111 49 0
111 -112 -49 0
-113 34 0
-113 39 0
113 -34 -39 0
-114 51 0
-114 32 0
114 -51 -32 0
-115 57 0
-115 54 0
115 -57 -54 0
-116 117 0
-116 39 0
116 -117 -39 0
-118 119 0
-118 116 0
118 -119 -116 0
-120 54 0
-120 52 0
120 -54 -52 0
-121 122 0
-121 48 0
121 -122 -48 0
-123 54 0
-123 52 0
123 -54 -52 0
-71 124 0
-71 39 0
71 -124 -39 0
-72 125 0
-72 48 0
72 -125 -48 0
-126 127 0
-126 48 0
126 -127 -48 0
-128 129 0
-128 47 0
128 -129 -47 0
-130 131 0
-130 128 0
130 -131 -128 0
-132 133 0
-132 49 0
132 -133 -49 0
-134 45 0
-134 48 0
134 -45 -48 0
-135 136 0
-135 53 0
135 -136 -53 0
-137 138 0
-137 42 0
137 -138 -42 0
-139 140 0
-139 46 0
139 -140 -46 0
-141 142 0
-141 42 0
141 -142 -42 0
-143 144 0
-143 42 0
143 -144 -42 0
-145 35 0
-145 45 0
145 -35 -45 0
146 -114 0
146 -52 0
-146 114 52 0
-66 147 0
-66 39 0
66 -147 -39 0
-148 44 0
-148 35 0
148 -44 -35 0
-149 33 0
-149 41 0
149 -33 -41 0
-150 151 0
-150 48 0
150 -151 -48 0
152 -123 0
152 -121 0
-152 123 121 0
-153 154 0
-153 39 0
153 -154 -39 0
155 -101 0
155 -48 0
-155 101 48 0
-156 57 0
-156 155 0
156 -57 -155 0
157 -104 0
157 -102 0
-157 104 102 0
-158 159 0
-158 48 0
158 -159 -48 0
160 -132 0
160 -130 0
-160 132 130 0
-161 160 0
-161 38 0
161 -160 -38 0
-162 163 0
-162 40 0
162 -163 -40 0
-164 165 0
-164 52 0
164 -165 -52 0
166 -120 0
166 -118 0
-166 120 118 0
-167 166 0
-167 57 0
167 -166 -57 0
-168 169 0
-168 48 0
168 -169 -48 0
170 -52 0
170 -126 0
-170 52 126 0
-171 172 0
-171 39 0
171 -172 -39 0
-173 37 0
-173 46 0
173 -37 -46 0
-174 175 0
-174 42 0
174 -175 -42 0
176 -141 0
176 -139 0
-176 141 139 0
-75 177 0
-75 56 0
75 -177 -56 0
178 -107 0
178 -105 0
-178 107 105 0
-179 39 0
-179 178 0
179 -39 -178 0
180 -143 0
180 -35 0
-180 143 35 0
-181 180 0
-181 48 0
181 -180 -48 0
182 -35 0
182 -113 0
-182 35 113 0
-183 184 0
-183 182 0
183 -184 -182 0
185 -36 0
185 -145 0
-185 36 145 0
-186 187 0
-186 185 0
186 -187 -185 0
-188 189 0
-188 46 0
188 -189 -46 0
190 -137 0
190 -135 0
-190 137 135 0
-69 191 0
-69 54 0
69 -191 -54 0
192 -52 0
192 -134 0
-192 52 134 0
193 -50 0
193 -115 0
-193 50 115 0
-87 194 0
-87 193 0
87 -194 -193 0
195 -167 0
195 -164 0
-195 167 164 0
-86 195 0
-86 48 0
86 -195 -48 0
196 -174 0
196 -173 0
-196 174 173 0
-96 197 0
-96 56 0
96 -197 -56 0
198 -162 0
198 -161 0
-198 162 161 0
-81 199 0
-81 56 0
81 -199 -56 0
200 -149 0
200 -148 0
-200 149 148 0
-201 202 0
-201 48 0
201 -202 -48 0
-203 204 0
-203 39 0
203 -204 -39 0
-205 206 0
-205 203 0
205 -206 -203 0
-207 208 0
-207 39 0
207 -208 -39 0
-209 210 0
-209 207 0
209 -210 -207 0
211 -158 0
211 -156 0
-211 158 156 0
-212 211 0
-212 52 0
212 -211 -52 0
213 -171 0
213 -168 0
-213 171 168 0
-90 50 0
-90 213 0
90 -50 -213 0
214 -153 0
214 -150 0
-214 153 150 0
-89 214 0
-89 57 0
89 -214 -57 0
215 -111 0
215 -109 0
-215 111 109 0
-216 38 0
-216 215 0
216 -38 -215 0
217 -218 0
217 -183 0
-217 218 183 0
-219 217 0
-219 48 0
219 -217 -48 0
220 -181 0
220 -179 0
-220 181 179 0
-84 221 0
-84 56 0
84 -221 -56 0
222 -100 0
222 -99 0
-222 100 99 0
-63 223 0
-63 222 0
63 -223 -222 0
224 -212 0
224 -209 0
-224 212 209 0
-62 224 0
-62 54 0
62 -224 -54 0
225 -205 0
225 -201 0
-225 205 201 0
-78 226 0
-78 56 0
78 -226 -56 0
227 -219 0
227 -216 0
-227 219 216 0
-93 228 0
-93 56 0
93 -228 -56 0
-229 55 0
-229 45 0
229 -55 -45 0
-65 229 0
-65 48 0
65 -229 -48 0
-68 45 0
-68 48 0
68 -45 -48 0
-230 54 0
-230 52 0
230 -54 -52 0
-74 230 0
-74 48 0
74 -230 -48 0
-77 54 0
-77 52 0
77 -54 -52 0
-80 54 0
-80 52 0
80 -54 -52 0
-83 54 0
-83 52 0
83 -54 -52 0
-92 54 0
-92 52 0
92 -54 -52 0
-231 54 0
-231 52 0
231 -54 -52 0
-95 231 0
-95 48 0
95 -231 -48 0
-232 50 0
-232 32 0
232 -50 -32 0
-97 232 0
-97 38 0
97 -232 -38 0
-233 55 0
-233 53 0
233 -55 -53 0
-98 233 0
-98 45 0
98 -233 -45 0
-103 27 0
-103 43 0
103 -27 -43 0
-234 31 0
-234 38 0
234 -31 -38 0
-106 234 0
-106 46 0
106 -234 -46 0
-108 34 0
-108 45 0
108 -34 -45 0
-110 47 0
-110 46 0
110 -47 -46 0
-112 39 0
-112 45 0
112 -39 -45 0
-117 31 0
-117 38 0
117 -31 -38 0
-119 53 0
-119 45 0
119 -53 -45 0
-122 51 0
-122 45 0
122 -51 -45 0
-235 51 0
-235 29 0
235 -51 -29 0
-124 235 0
-124 38 0
124 -235 -38 0
-236 54 0
-236 53 0
236 -54 -53 0
-125 236 0
-125 45 0
125 -236 -45 0
-237 31 0
-237 55 0
237 -31 -55 0
-127 237 0
-127 45 0
127 -237 -45 0
-129 34 0
-129 28 0
129 -34 -28 0
-131 45 0
-131 48 0
131 -45 -48 0
-133 39 0
-133 46 0
133 -39 -46 0
-136 51 0
-136 39 0
136 -51 -39 0
-238 56 0
-238 44 0
238 -56 -44 0
-138 238 0
-138 52 0
138 -238 -52 0
-140 35 0
-140 39 0
140 -35 -39 0
-142 43 0
-142 45 0
142 -43 -45 0
-144 43 0
-144 45 0
144 -43 -45 0
-239 146 0
-239 57 0
239 -146 -57 0
-147 239 0
-147 38 0
147 -239 -38 0
-151 54 0
-151 52 0
151 -54 -52 0
-154 152 0
-154 38 0
154 -152 -38 0
-159 157 0
-159 47 0
159 -157 -47 0
-163 46 0
-163 48 0
163 -46 -48 0
-165 50 0
-165 54 0
165 -50 -54 0
-169 54 0
-169 52 0
169 -54 -52 0
-172 170 0
-172 38 0
172 -170 -38 0
-175 43 0
-175 45 0
175 -43 -45 0
-177 176 0
-177 51 0
177 -176 -51 0
-184 44 0
-184 45 0
184 -44 -45 0
-187 28 0
-187 47 0
187 -28 -47 0
-240 32 0
-240 35 0
240 -32 -35 0
-189 240 0
-189 39 0
189 -240 -39 0
-191 190 0
-191 38 0
191 -190 -38 0
-241 38 0
-241 39 0
241 -38 -39 0
-194 241 0
-194 192 0
194 -241 -192 0
-197 196 0
-197 51 0
197 -196 -51 0
-199 198 0
-199 51 0
199 -198 -51 0
-202 200 0
-202 45 0
202 -200 -45 0
-204 32 0
-204 38 0
204 -32 -38 0
-206 46 0
-206 49 0
206 -46 -49 0
-208 51 0
-208 38 0
208 -51 -38 0
-242 53 0
-242 45 0
242 -53 -45 0
-210 242 0
-210 48 0
210 -242 -48 0
218 -188 0
218 -186 0
-218 188 186 0
-221 220 0
-221 51 0
221 -220 -51 0
-223 50 0
-223 52 0
223 -50 -52 0
-226 225 0
-226 51 0
226 -225 -51 0
-228 227 0
-228 51 0
228 -227 -51 0
